c User generated cnf file
p cnf 11 35
10 -4 3 0 
1 10 -10 0 
2 -11 7 0 
6 7 -2 0 
5 -4 5 0 
2 4 -4 0 
1 -4 11 0 
5 4 -8 0 
6 9 -1 0 
7 7 -9 0 
10 5 -5 0 
3 7 -11 0 
1 7 -9 0 
4 -4 7 0 
8 -1 7 0 
8 -6 6 0 
4 -5 11 0 
9 9 -11 0 
1 -6 6 0 
7 -6 6 0 
10 -7 1 0 
5 10 -9 0 
5 9 -5 0 
1 -4 8 0 
2 -5 5 0 
10 6 -7 0 
1 -8 8 0 
11 -2 3 0 
7 1 -5 0 
9 -1 6 0 
4 10 -3 0 
11 -4 11 0 
11 6 -1 0 
5 -6 4 0 
10 -2 7 0 
